17,8	0,0	12,5	12,7	0,0	0,0	0,0	0,0	0,0	19,2
15,6	14,2	0,0	14,2	16,7	0,0	0,0	11,6	0,0	0,0
0,0	0,0	15,2	0,0	6,5	7,4	0,0	0,0	9,4	0,0
14,8	0,0	6,5	0,0	0,0	0,0	13,9	0,0	0,0	0,0
0,0	12,3	0,0	10,6	11,1	0,0	0,0	6,9	0,0	0,0
0,0	18,7	17,5	0,0	18,0	15,8	0,0	0,0	5,3	0,0
0,0	7,3	0,0	11,3	0,0	0,0	7,2	0,0	0,0	8,8
14,1	0,0	19,6	0,0	0,0	0,0	0,0	0,0	0,0	20,0
0,0	14,8	0,0	16,3	14,0	0,0	0,0	8,4	0,0	0,0
0,0	0,0	7,4	0,0	0,0	17,7	13,9	0,0	0,0	19,4
									
2,6	3,3	3,9	3,6	3,1	3,0	2,8	3,0	3,2	3,0
